(set-info :smt-lib-version 2.6)
(set-logic UF)
(set-info :source |Benchmarks from the paper: "Extending Sledgehammer with SMT Solvers" by Jasmin Blanchette, Sascha Bohme, and Lawrence C. Paulson, CADE 2011.  Translated to SMT2 by Andrew Reynolds and Morgan Deters.|)
(set-info :category "industrial")
(set-info :status sat)
(declare-sort S1 0)
(declare-sort S2 0)
(declare-sort S3 0)
(declare-sort S4 0)
(declare-sort S5 0)
(declare-sort S6 0)
(declare-sort S7 0)
(declare-sort S8 0)
(declare-sort S9 0)
(declare-sort S10 0)
(declare-sort S11 0)
(declare-sort S12 0)
(declare-sort S13 0)
(declare-sort S14 0)
(declare-sort S15 0)
(declare-sort S16 0)
(declare-sort S17 0)
(declare-sort S18 0)
(declare-sort S19 0)
(declare-sort S20 0)
(declare-sort S21 0)
(declare-sort S22 0)
(declare-sort S23 0)
(declare-sort S24 0)
(declare-sort S25 0)
(declare-sort S26 0)
(declare-sort S27 0)
(declare-sort S28 0)
(declare-sort S29 0)
(declare-fun f1 () S1)
(declare-fun f2 () S1)
(declare-fun f3 (S2 S3 S4 S5 S6) S1)
(declare-fun f4 () S2)
(declare-fun f5 () S3)
(declare-fun f6 () S4)
(declare-fun f7 () S5)
(declare-fun f8 () S6)
(declare-fun f9 () S3)
(declare-fun f10 () S5)
(declare-fun f11 (S2 S6 S6) S1)
(declare-fun f12 (S7 S2) S1)
(declare-fun f13 () S7)
(declare-fun f14 (S8 S9) S1)
(declare-fun f15 (S10 S4) S8)
(declare-fun f16 (S2) S10)
(declare-fun f17 (S11 S12) S9)
(declare-fun f18 (S13 S3) S11)
(declare-fun f19 () S13)
(declare-fun f20 () S12)
(declare-fun f21 (S14 S15) S5)
(declare-fun f22 (S16 S17) S14)
(declare-fun f23 (S18 S5) S16)
(declare-fun f24 () S18)
(declare-fun f25 () S17)
(declare-fun f26 () S15)
(declare-fun f27 () S6)
(declare-fun f28 (S19 S17) S5)
(declare-fun f29 (S20 S17) S19)
(declare-fun f30 (S21 S5) S20)
(declare-fun f31 () S21)
(declare-fun f32 (S22 S23) S1)
(declare-fun f33 (S24 S25) S22)
(declare-fun f34 (S26 S25) S24)
(declare-fun f35 () S26)
(declare-fun f36 (S27 S9) S25)
(declare-fun f37 (S28 S5) S27)
(declare-fun f38 () S28)
(declare-fun f39 () S12)
(declare-fun f40 (S2) S23)
(declare-fun f41 () S6)
(declare-fun f42 (S2 S3) S1)
(declare-fun f43 (S2 S3 S12 S4) S1)
(declare-fun f44 (S9) S3)
(declare-fun f45 (S29 S25) S1)
(declare-fun f46 (S23 S22) S1)
(assert (not (= f1 f2)))
(assert (not (= (f3 f4 f5 f6 f7 f8) f1)))
(assert (= (f3 f4 f9 f6 f10 f8) f1))
(assert (forall ((?v0 S6)) (=> (= (f3 f4 f9 f6 f10 ?v0) f1) (exists ((?v1 S6)) (and (= (f3 f4 f5 f6 f7 ?v1) f1) (= (f11 f4 ?v1 ?v0) f1))))))
(assert (= (f3 f4 f9 f6 f10 f8) f1))
(assert (forall ((?v0 S6)) (=> (= (f3 f4 f9 f6 f10 ?v0) f1) (exists ((?v1 S6)) (and (= (f3 f4 f5 f6 f7 ?v1) f1) (= (f11 f4 ?v1 ?v0) f1))))))
(assert (= (f12 f13 f4) f1))
(assert (forall ((?v0 S4) (?v1 S6)) (=> (= (f14 (f15 (f16 f4) ?v0) (f17 (f18 f19 f9) f20)) f1) (=> (= (f3 f4 f9 ?v0 f10 ?v1) f1) (exists ((?v2 S6)) (and (= (f3 f4 f5 ?v0 f7 ?v2) f1) (= (f11 f4 ?v2 ?v1) f1)))))))
(assert (= (f3 f4 f9 f6 (f21 (f22 (f23 f24 f10) f25) f26) f27) f1))
(assert (= (f14 (f15 (f16 f4) f6) (f17 (f18 f19 f9) f20)) f1))
(assert (forall ((?v0 S2) (?v1 S3) (?v2 S4) (?v3 S5) (?v4 S17) (?v5 S17) (?v6 S6)) (=> (= (f3 ?v0 ?v1 ?v2 ?v3 f8) f1) (= (f3 ?v0 ?v1 ?v2 (f28 (f29 (f30 f31 ?v3) ?v4) ?v5) ?v6) f1))))
(assert (forall ((?v0 S4) (?v1 S6)) (=> (= (f14 (f15 (f16 f4) ?v0) (f17 (f18 f19 f9) f20)) f1) (=> (= (f3 f4 f9 ?v0 f10 ?v1) f1) (exists ((?v2 S6)) (and (= (f3 f4 f5 ?v0 f7 ?v2) f1) (= (f11 f4 ?v2 ?v1) f1)))))))
(assert (= (f32 (f33 (f34 f35 (f36 (f37 f38 f10) (f17 (f18 f19 f9) f20))) (f36 (f37 f38 f7) (f17 (f18 f19 f5) f39))) (f40 f4)) f1))
(assert (= (f3 f4 f9 f6 (f21 (f22 (f23 f24 f10) f25) f26) f27) f1))
(assert (= (f14 (f15 (f16 f4) f6) (f17 (f18 f19 f9) f20)) f1))
(assert (not (= f8 f41)))
(assert (not (= f41 f8)))
(assert (forall ((?v0 S5) (?v1 S9) (?v2 S5) (?v3 S9) (?v4 S2) (?v5 S17) (?v6 S17)) (let ((?v_0 (f40 ?v4))) (=> (= (f32 (f33 (f34 f35 (f36 (f37 f38 ?v0) ?v1)) (f36 (f37 f38 ?v2) ?v3)) ?v_0) f1) (= (f32 (f33 (f34 f35 (f36 (f37 f38 (f28 (f29 (f30 f31 ?v0) ?v5) ?v6)) ?v1)) (f36 (f37 f38 (f28 (f29 (f30 f31 ?v2) ?v5) ?v6)) ?v3)) ?v_0) f1)))))
(assert (forall ((?v0 S5) (?v1 S9) (?v2 S5) (?v3 S9) (?v4 S2) (?v5 S17) (?v6 S15)) (let ((?v_0 (f40 ?v4))) (=> (= (f32 (f33 (f34 f35 (f36 (f37 f38 ?v0) ?v1)) (f36 (f37 f38 ?v2) ?v3)) ?v_0) f1) (= (f32 (f33 (f34 f35 (f36 (f37 f38 (f21 (f22 (f23 f24 ?v0) ?v5) ?v6)) ?v1)) (f36 (f37 f38 (f21 (f22 (f23 f24 ?v2) ?v5) ?v6)) ?v3)) ?v_0) f1)))))
(assert (forall ((?v0 S2) (?v1 S6)) (= (f11 ?v0 ?v1 ?v1) f1)))
(assert (forall ((?v0 S5) (?v1 S3) (?v2 S12) (?v3 S5) (?v4 S3) (?v5 S12) (?v6 S2) (?v7 S4) (?v8 S6)) (=> (= (f32 (f33 (f34 f35 (f36 (f37 f38 ?v0) (f17 (f18 f19 ?v1) ?v2))) (f36 (f37 f38 ?v3) (f17 (f18 f19 ?v4) ?v5))) (f40 ?v6)) f1) (=> (= (f3 ?v6 ?v1 ?v7 ?v0 ?v8) f1) (=> (= (f42 ?v6 ?v1) f1) (= (f42 ?v6 ?v4) f1))))))
(assert (forall ((?v0 S5) (?v1 S3) (?v2 S12) (?v3 S5) (?v4 S3) (?v5 S12) (?v6 S2) (?v7 S4) (?v8 S6)) (=> (= (f32 (f33 (f34 f35 (f36 (f37 f38 ?v0) (f17 (f18 f19 ?v1) ?v2))) (f36 (f37 f38 ?v3) (f17 (f18 f19 ?v4) ?v5))) (f40 ?v6)) f1) (=> (= (f3 ?v6 ?v1 ?v7 ?v0 ?v8) f1) (=> (= (f43 ?v6 ?v1 ?v2 ?v7) f1) (= (f43 ?v6 ?v4 ?v5 ?v7) f1))))))
(assert (forall ((?v0 S5) (?v1 S17) (?v2 S15) (?v3 S5) (?v4 S17) (?v5 S17)) (not (= (f21 (f22 (f23 f24 ?v0) ?v1) ?v2) (f28 (f29 (f30 f31 ?v3) ?v4) ?v5)))))
(assert (forall ((?v0 S5) (?v1 S17) (?v2 S17) (?v3 S5) (?v4 S17) (?v5 S15)) (not (= (f28 (f29 (f30 f31 ?v0) ?v1) ?v2) (f21 (f22 (f23 f24 ?v3) ?v4) ?v5)))))
(assert (forall ((?v0 S5) (?v1 S9) (?v2 S5) (?v3 S9) (?v4 S2) (?v5 S4) (?v6 S6)) (let ((?v_0 (f15 (f16 ?v4) ?v5))) (=> (= (f32 (f33 (f34 f35 (f36 (f37 f38 ?v0) ?v1)) (f36 (f37 f38 ?v2) ?v3)) (f40 ?v4)) f1) (=> (= (f3 ?v4 (f44 ?v1) ?v5 ?v0 ?v6) f1) (=> (= (f14 ?v_0 ?v1) f1) (= (f14 ?v_0 ?v3) f1)))))))
(assert (forall ((?v0 S5) (?v1 S9) (?v2 S5) (?v3 S9)) (=> (= (f36 (f37 f38 ?v0) ?v1) (f36 (f37 f38 ?v2) ?v3)) (=> (=> (= ?v0 ?v2) (=> (= ?v1 ?v3) false)) false))))
(assert (forall ((?v0 S25) (?v1 S25) (?v2 S25) (?v3 S25)) (=> (= (f33 (f34 f35 ?v0) ?v1) (f33 (f34 f35 ?v2) ?v3)) (=> (=> (= ?v0 ?v2) (=> (= ?v1 ?v3) false)) false))))
(assert (forall ((?v0 S3) (?v1 S12) (?v2 S3) (?v3 S12)) (=> (= (f17 (f18 f19 ?v0) ?v1) (f17 (f18 f19 ?v2) ?v3)) (=> (=> (= ?v0 ?v2) (=> (= ?v1 ?v3) false)) false))))
(assert (forall ((?v0 S5) (?v1 S9) (?v2 S5) (?v3 S9)) (= (= (f36 (f37 f38 ?v0) ?v1) (f36 (f37 f38 ?v2) ?v3)) (and (= ?v0 ?v2) (= ?v1 ?v3)))))
(assert (forall ((?v0 S25) (?v1 S25) (?v2 S25) (?v3 S25)) (= (= (f33 (f34 f35 ?v0) ?v1) (f33 (f34 f35 ?v2) ?v3)) (and (= ?v0 ?v2) (= ?v1 ?v3)))))
(assert (forall ((?v0 S3) (?v1 S12) (?v2 S3) (?v3 S12)) (= (= (f17 (f18 f19 ?v0) ?v1) (f17 (f18 f19 ?v2) ?v3)) (and (= ?v0 ?v2) (= ?v1 ?v3)))))
(assert (forall ((?v0 S29)) (= (forall ((?v1 S25)) (= (f45 ?v0 ?v1) f1)) (forall ((?v1 S5) (?v2 S9)) (= (f45 ?v0 (f36 (f37 f38 ?v1) ?v2)) f1)))))
(assert (forall ((?v0 S23)) (= (forall ((?v1 S22)) (= (f46 ?v0 ?v1) f1)) (forall ((?v1 S25) (?v2 S25)) (= (f46 ?v0 (f33 (f34 f35 ?v1) ?v2)) f1)))))
(assert (forall ((?v0 S8)) (= (forall ((?v1 S9)) (= (f14 ?v0 ?v1) f1)) (forall ((?v1 S3) (?v2 S12)) (= (f14 ?v0 (f17 (f18 f19 ?v1) ?v2)) f1)))))
(assert (forall ((?v0 S2) (?v1 S6) (?v2 S6) (?v3 S6)) (=> (= (f11 ?v0 ?v1 ?v2) f1) (=> (= (f11 ?v0 ?v2 ?v3) f1) (= (f11 ?v0 ?v1 ?v3) f1)))))
(check-sat)
(exit)
